TOUR_SECTION
1
29
175
49
53
122
142
156
191
169
144
97
10
140
24
103
145
19
179
12
33
58
45
35
143
138
121
87
152
40
75
77
111
13
196
133
161
116
91
46
84
54
112
185
63
4
201
166
151
171
25
182
37
43
160
115
17
155
51
189
132
162
110
100
188
197
32
83
73
153
176
47
180
61
158
6
108
52
113
28
187
164
199
107
44
135
184
195
92
15
198
9
127
38
101
22
3
64
89
163
36
193
70
16
186
72
136
190
118
120
95
78
86
11
34
68
174
66
7
131
126
117
71
80
39
88
82
148
105
27
85
154
123
165
157
57
159
99
96
139
69
141
178
192
173
65
109
55
93
2
94
74
167
21
62
137
130
129
114
150
119
30
14
20
31
177
67
106
128
41
146
147
42
98
183
104
23
5
170
8
59
125
124
48
181
194
81
149
76
79
56
18
60
90
102
50
168
134
200
172
26
-1
EOF